### ================================================ ###
###                This is dummy file                ###
###               it should be replaced              ###
### ================================================ ###
Monkhorst Pack
0
Monkhorst Pack
5 5 2
0 0 0
