This is dummy file it should be replaced                    
 1.000000000000000
     2.8340000000000000   -2.8340000000000000   -2.8340000000000000
    -2.8340000000000000    2.8340000000000000   -2.8340000000000000
    17.0000000000000000   17.0000000000000000    0.0000000000000000
   C
   1
Selective dynamics
Direct
  0.2500001513135408  0.7500005008685451  0.5246468398532839   F   F   F

  0.00000000E+00  0.00000000E+00  0.00000000E+00
